; benchmark generated from python API
(set-info :status unknown)
(declare-fun x_months () Int)
(declare-fun x_beta () Int)
(assert
 (<= (- 1202) x_months))
(assert
 (>= 1209 x_months))
(assert
 (>= x_beta 0))
(assert
 (let ((?x4143 (+ x_months 24003)))
 (let ((?x4096 (- ?x4143 (* (div (- ?x4143 1) 12) 12))))
 (let ((?x4170 (ite (or (= ?x4096 4) (= ?x4096 6) (= ?x4096 9) (= ?x4096 11)) 30 31)))
 (let (($x3814 (and (= (mod (div (- ?x4143 1) 12) 4) 0) (and (distinct (mod (div (- ?x4143 1) 12) 100) 0) true))))
 (let ((?x3625 (ite (or $x3814 (= (mod (div (- ?x4143 1) 12) 400) 0)) 29 28)))
 (< x_beta (ite (= ?x4096 2) ?x3625 ?x4170))))))))
(assert
 (let ((?x4172 (- (+ (* 2020 12) 1) 24003)))
 (let (($x1275 (= x_months ?x4172)))
 (or (> x_months ?x4172) (and $x1275 (<= 0 x_beta))))))
(assert
 (let (($x2316 (and (= x_months (- (+ (* 2020 12) 2) 24003)) (>= 27 x_beta))))
 (or (< x_months (- (+ (* 2020 12) 2) 24003)) $x2316)))
(assert
 (let ((?x3328 (+ x_beta 1)))
 (let ((?x498 (+ (+ x_months 0) 24003)))
 (let ((?x3686 (- ?x498 (* (div (- ?x498 1) 12) 12))))
 (let ((?x3938 (ite (or (= ?x3686 4) (= ?x3686 6) (= ?x3686 9) (= ?x3686 11)) 30 31)))
 (let (($x1402 (and (= (mod (div (- ?x498 1) 12) 4) 0) (and (distinct (mod (div (- ?x498 1) 12) 100) 0) true))))
 (let (($x392 (or $x1402 (= (mod (div (- ?x498 1) 12) 400) 0))))
 (let ((?x4236 (ite (= ?x3686 2) (ite $x392 29 28) ?x3938)))
 (let (($x2874 (> 1 ?x3328)))
 (let ((?x2847 (ite $x2874 1 (ite (> ?x3328 ?x4236) ?x4236 ?x3328))))
 (let ((?x1826 (ite (> 1 ?x2847) 1 (ite (> ?x2847 ?x4236) ?x4236 ?x2847))))
 (let ((?x3788 (ite (= 2 ?x3686) (ite $x392 31 31) (ite (= 1 ?x3686) (ite $x392 0 0) 0))))
 (let ((?x1481 (ite (= 4 ?x3686) (ite $x392 91 90) (ite (= 3 ?x3686) (ite $x392 60 59) ?x3788))))
 (let ((?x1869 (ite (= 6 ?x3686) (ite $x392 152 151) (ite (= 5 ?x3686) (ite $x392 121 120) ?x1481))))
 (let ((?x2851 (ite (= 8 ?x3686) (ite $x392 213 212) (ite (= 7 ?x3686) (ite $x392 182 181) ?x1869))))
 (let ((?x507 (ite (= 10 ?x3686) (ite $x392 274 273) (ite (= 9 ?x3686) (ite $x392 244 243) ?x2851))))
 (let ((?x2858 (ite (= 12 ?x3686) (ite $x392 335 334) (ite (= 11 ?x3686) (ite $x392 305 304) ?x507))))
 (let ((?x2226 (+ (* 365 (- (div (- ?x498 1) 12) 1)) (div (- (div (- ?x498 1) 12) 1) 4))))
 (let ((?x4109 (+ (- ?x2226 (div (- (div (- ?x498 1) 12) 1) 100)) (div (- (div (- ?x498 1) 12) 1) 400))))
 (let ((?x3996 (+ (+ (- (+ (+ ?x4109 ?x2858) (- ?x1826 1)) 730179) 365) 730179)))
 (let ((?x2519 (mod ?x3996 146097)))
 (let ((?x1866 (div ?x2519 36524)))
 (let ((?x2911 (ite (<= 4 ?x1866) 3 ?x1866)))
 (let ((?x3307 (- ?x2519 (* ?x2911 36524))))
 (let ((?x2832 (mod ?x3307 1461)))
 (let ((?x2813 (div ?x2832 365)))
 (let ((?x1043 (ite (<= 4 ?x2813) 3 ?x2813)))
 (let ((?x1719 (+ (+ (* (div ?x3996 146097) 400) (* ?x2911 100)) (* (div ?x3307 1461) 4))))
 (let ((?x3768 (+ (+ ?x1719 ?x1043) 1)))
 (let (($x3666 (or (and (= (mod ?x3768 4) 0) (and (distinct (mod ?x3768 100) 0) true)) (= (mod ?x3768 400) 0))))
 (let ((?x1947 (- ?x2832 (* ?x1043 365))))
 (let ((?x339 (ite $x3666 31 31)))
 (let (($x2916 (>= ?x1947 ?x339)))
 (let ((?x3757 (ite $x2916 (+ (- ?x1947 ?x339) 1) (+ (- ?x1947 (ite $x3666 0 0)) 1))))
 (let ((?x1252 (ite $x3666 60 59)))
 (let (($x3460 (>= ?x1947 ?x1252)))
 (let ((?x1982 (ite $x3666 91 90)))
 (let (($x3602 (>= ?x1947 ?x1982)))
 (let ((?x4081 (ite $x3602 (+ (- ?x1947 ?x1982) 1) (ite $x3460 (+ (- ?x1947 ?x1252) 1) ?x3757))))
 (let ((?x2863 (ite $x3666 121 120)))
 (let (($x3588 (>= ?x1947 ?x2863)))
 (let ((?x2893 (ite $x3666 152 151)))
 (let (($x2242 (>= ?x1947 ?x2893)))
 (let ((?x3690 (ite $x2242 (+ (- ?x1947 ?x2893) 1) (ite $x3588 (+ (- ?x1947 ?x2863) 1) ?x4081))))
 (let ((?x2915 (ite $x3666 182 181)))
 (let (($x2245 (>= ?x1947 ?x2915)))
 (let ((?x2923 (ite $x3666 213 212)))
 (let (($x2189 (>= ?x1947 ?x2923)))
 (let ((?x1143 (ite $x2189 (+ (- ?x1947 ?x2923) 1) (ite $x2245 (+ (- ?x1947 ?x2915) 1) ?x3690))))
 (let ((?x2792 (ite $x3666 244 243)))
 (let (($x3638 (>= ?x1947 ?x2792)))
 (let ((?x2925 (ite $x3666 274 273)))
 (let (($x2681 (>= ?x1947 ?x2925)))
 (let ((?x1525 (ite $x2681 (+ (- ?x1947 ?x2925) 1) (ite $x3638 (+ (- ?x1947 ?x2792) 1) ?x1143))))
 (let ((?x1600 (ite $x3666 305 304)))
 (let (($x3002 (>= ?x1947 ?x1600)))
 (let ((?x2229 (ite $x3666 335 334)))
 (let (($x3529 (>= ?x1947 ?x2229)))
 (let ((?x1859 (ite $x3529 (+ (- ?x1947 ?x2229) 1) (ite $x3002 (+ (- ?x1947 ?x1600) 1) ?x1525))))
 (let (($x1576 (= 365 0)))
 (let ((?x495 (+ (+ x_months 12) 24003)))
 (let ((?x1652 (- ?x495 (* (div (- ?x495 1) 12) 12))))
 (let ((?x3028 (ite (or (= ?x1652 4) (= ?x1652 6) (= ?x1652 9) (= ?x1652 11)) 30 31)))
 (let (($x1249 (and (= (mod (div (- ?x495 1) 12) 4) 0) (and (distinct (mod (div (- ?x495 1) 12) 100) 0) true))))
 (let (($x2804 (or $x1249 (= (mod (div (- ?x495 1) 12) 400) 0))))
 (let ((?x3000 (ite (= ?x1652 2) (ite $x2804 29 28) ?x3028)))
 (let ((?x2240 (ite $x2874 1 (ite (> ?x3328 ?x3000) ?x3000 ?x3328))))
 (let ((?x1540 (ite (> 1 ?x2240) 1 (ite (> ?x2240 ?x3000) ?x3000 ?x2240))))
 (let ((?x2856 (ite (= 2 ?x1652) (ite $x2804 31 31) (ite (= 1 ?x1652) (ite $x2804 0 0) 0))))
 (let ((?x2776 (ite (= 4 ?x1652) (ite $x2804 91 90) (ite (= 3 ?x1652) (ite $x2804 60 59) ?x2856))))
 (let ((?x4052 (ite (= 6 ?x1652) (ite $x2804 152 151) (ite (= 5 ?x1652) (ite $x2804 121 120) ?x2776))))
 (let ((?x2723 (ite (= 8 ?x1652) (ite $x2804 213 212) (ite (= 7 ?x1652) (ite $x2804 182 181) ?x4052))))
 (let ((?x2098 (ite (= 10 ?x1652) (ite $x2804 274 273) (ite (= 9 ?x1652) (ite $x2804 244 243) ?x2723))))
 (let ((?x4025 (ite (= 12 ?x1652) (ite $x2804 335 334) (ite (= 11 ?x1652) (ite $x2804 305 304) ?x2098))))
 (let ((?x391 (+ (* 365 (- (div (- ?x495 1) 12) 1)) (div (- (div (- ?x495 1) 12) 1) 4))))
 (let ((?x2857 (+ (- ?x391 (div (- (div (- ?x495 1) 12) 1) 100)) (div (- (div (- ?x495 1) 12) 1) 400))))
 (let ((?x1897 (+ (+ (- (+ (+ ?x2857 ?x4025) (- ?x1540 1)) 730179) 0) 730179)))
 (let ((?x1493 (mod ?x1897 146097)))
 (let ((?x1714 (div ?x1493 36524)))
 (let ((?x1496 (ite (<= 4 ?x1714) 3 ?x1714)))
 (let ((?x1445 (- ?x1493 (* ?x1496 36524))))
 (let ((?x3260 (mod ?x1445 1461)))
 (let ((?x929 (div ?x3260 365)))
 (let ((?x1808 (ite (<= 4 ?x929) 3 ?x929)))
 (let ((?x2850 (+ (+ (* (div ?x1897 146097) 400) (* ?x1496 100)) (* (div ?x1445 1461) 4))))
 (let ((?x3501 (+ (+ ?x2850 ?x1808) 1)))
 (let (($x900 (or (and (= (mod ?x3501 4) 0) (and (distinct (mod ?x3501 100) 0) true)) (= (mod ?x3501 400) 0))))
 (let ((?x3707 (- ?x3260 (* ?x1808 365))))
 (let ((?x2679 (ite $x900 31 31)))
 (let (($x3812 (>= ?x3707 ?x2679)))
 (let ((?x4038 (ite $x3812 (+ (- ?x3707 ?x2679) 1) (+ (- ?x3707 (ite $x900 0 0)) 1))))
 (let ((?x3699 (ite $x900 60 59)))
 (let (($x3887 (>= ?x3707 ?x3699)))
 (let ((?x3291 (ite $x900 91 90)))
 (let (($x3637 (>= ?x3707 ?x3291)))
 (let ((?x3923 (ite $x3637 (+ (- ?x3707 ?x3291) 1) (ite $x3887 (+ (- ?x3707 ?x3699) 1) ?x4038))))
 (let ((?x3179 (ite $x900 121 120)))
 (let (($x3842 (>= ?x3707 ?x3179)))
 (let ((?x2482 (ite $x900 152 151)))
 (let (($x4012 (>= ?x3707 ?x2482)))
 (let ((?x424 (ite $x4012 (+ (- ?x3707 ?x2482) 1) (ite $x3842 (+ (- ?x3707 ?x3179) 1) ?x3923))))
 (let ((?x2504 (ite $x900 182 181)))
 (let (($x2905 (>= ?x3707 ?x2504)))
 (let ((?x3574 (ite $x900 213 212)))
 (let (($x4051 (>= ?x3707 ?x3574)))
 (let ((?x3662 (ite $x4051 (+ (- ?x3707 ?x3574) 1) (ite $x2905 (+ (- ?x3707 ?x2504) 1) ?x424))))
 (let ((?x3919 (ite $x900 244 243)))
 (let (($x3993 (>= ?x3707 ?x3919)))
 (let ((?x4098 (ite $x900 274 273)))
 (let (($x2623 (>= ?x3707 ?x4098)))
 (let ((?x4060 (ite $x2623 (+ (- ?x3707 ?x4098) 1) (ite $x3993 (+ (- ?x3707 ?x3919) 1) ?x3662))))
 (let ((?x3950 (ite $x900 305 304)))
 (let (($x1562 (>= ?x3707 ?x3950)))
 (let ((?x3943 (ite $x900 335 334)))
 (let (($x2838 (>= ?x3707 ?x3943)))
 (let ((?x540 (ite $x2838 (+ (- ?x3707 ?x3943) 1) (ite $x1562 (+ (- ?x3707 ?x3950) 1) ?x4060))))
 (let (($x1067 (= 0 0)))
 (let ((?x3617 (ite $x3588 5 (ite $x3602 4 (ite $x3460 3 (ite $x2916 2 1))))))
 (let ((?x1958 (ite $x3638 9 (ite $x2189 8 (ite $x2245 7 (ite $x2242 6 ?x3617))))))
 (let ((?x3589 (ite $x3529 12 (ite $x3002 11 (ite $x2681 10 ?x1958)))))
 (let ((?x753 (+ (* (ite $x1576 (div (- ?x498 1) 12) ?x3768) 12) (ite $x1576 ?x3686 ?x3589))))
 (let ((?x3846 (ite $x3842 5 (ite $x3637 4 (ite $x3887 3 (ite $x3812 2 1))))))
 (let ((?x1520 (ite $x3993 9 (ite $x4051 8 (ite $x2905 7 (ite $x4012 6 ?x3846))))))
 (let ((?x3236 (+ (* (ite $x1067 (div (- ?x495 1) 12) ?x3501) 12) (ite $x1067 ?x1652 (ite $x2838 12 (ite $x1562 11 (ite $x2623 10 ?x1520)))))))
 (let (($x3532 (and (= (- ?x3236 24003) (- ?x753 24003)) (= (- (ite $x1067 ?x1540 ?x540) 1) (- (ite $x1576 ?x1826 ?x1859) 1)))))
 (not $x3532))))))))))))))))))))))))))))))))))))))))))))))))))))))))))))))))))))))))))))))))))))))))))))))))))))))))))))))))))))))))))))))
(assert
 (let ((?x4172 (- (+ (* 2020 12) 1) 24003)))
(let (($x1275 (= x_months ?x4172)))
(and $x1275 (= 0 x_beta)))))
(check-sat)
